results/res_prop_muc/res_Cimatti_mathsat_cores/QF_LRA/clocksynchro_2clocks.main_invar.induct.smt.smt2.out
### boolMucExtractionTime 1129405
