results/res_prop_muc/res_Cimatti_mathsat_cores/QF_LRA/clocksynchro_2clocks.main_invar.induct.smt.smt2.res
unsat
( c0
  c1
  c10
  c100
  c101
  c102
  c103
  c104
  c105
  c106
  c108
  c109
  c11
  c110
  c111
  c112
  c113
  c114
  c115
  c117
  c118
  c119
  c12
  c120
  c122
  c123
  c127
  c128
  c129
  c13
  c130
  c131
  c133
  c134
  c135
  c136
  c138
  c139
  c14
  c140
  c141
  c142
  c144
  c145
  c146
  c147
  c148
  c149
  c15
  c150
  c151
  c152
  c153
  c154
  c155
  c16
  c165
  c166
  c167
  c168
  c169
  c17
  c171
  c172
  c173
  c174
  c176
  c177
  c18
  c181
  c182
  c183
  c184
  c185
  c187
  c188
  c189
  c19
  c190
  c192
  c193
  c194
  c195
  c196
  c198
  c199
  c2
  c20
  c201
  c202
  c203
  c204
  c205
  c206
  c207
  c208
  c209
  c21
  c219
  c22
  c228
  c23
  c236
  c24
  c240
  c241
  c242
  c243
  c244
  c245
  c246
  c247
  c248
  c249
  c25
  c250
  c251
  c252
  c253
  c258
  c259
  c26
  c261
  c262
  c263
  c264
  c267
  c268
  c27
  c270
  c271
  c272
  c273
  c274
  c275
  c276
  c279
  c28
  c280
  c283
  c284
  c286
  c287
  c289
  c29
  c290
  c295
  c296
  c30
  c301
  c302
  c307
  c308
  c31
  c313
  c314
  c315
  c319
  c32
  c320
  c321
  c325
  c326
  c33
  c331
  c334
  c337
  c339
  c34
  c340
  c342
  c344
  c35
  c36
  c37
  c38
  c39
  c4
  c40
  c41
  c42
  c43
  c44
  c45
  c46
  c47
  c48
  c49
  c5
  c50
  c51
  c54
  c6
  c65
  c68
  c69
  c7
  c70
  c79
  c8
  c80
  c81
  c82
  c83
  c84
  c85
  c86
  c87
  c88
  c89
  c9
  c90
  c92
  c93
  c94
  c95
  c96
  c97
  c98
  c99 )
